2/data/input3.dimacs
p cnf 30 60
4 0
5 0
4 0
1 4 0
1 0
1 4 0
2 4 0
2 4 0
2 4 0
3 4 0
-9 -6 0
-9 -7 0
-9 -8 0
-17 -14 0
-17 -15 0
-17 -16 0
-25 -22 0
-25 -23 0
-25 -24 0
-1 9 17 25 0
-10 -6 0
-10 -7 0
-10 8 0
-18 -14 0
-18 -15 0
-18 16 0
-26 -22 0
-26 -23 0
-26 24 0
-2 10 18 26 0
-11 -6 0
-11 7 0
-11 -8 0
-19 -14 0
-19 15 0
-19 -16 0
-27 -22 0
-27 23 0
-27 -24 0
-3 11 19 27 0
-12 -6 0
-12 7 0
-12 8 0
-20 -14 0
-20 15 0
-20 16 0
-28 -22 0
-28 23 0
-28 24 0
-4 12 20 28 0
-13 6 0
-13 -7 0
-13 -8 0
-21 14 0
-21 -15 0
-21 -16 0
-29 22 0
-29 -23 0
-29 -24 0
-5 13 21 29 0