2/data/input3.txt
5 10 3
3 4 5
6 7 8
9
0 2 3 5 6 7 8 9
1